(set-logic ALL)
(declare-fun i1 () Int)
(declare-fun it379 () Int)
(declare-fun it380 () Int)
(declare-fun it15 () Int)
(declare-fun it14 () Int)
(declare-fun it381 () Int)
(declare-fun it382 () Int)
(declare-fun it13 () Int)
(declare-fun bt437 () Bool)
(declare-fun bt438 () Bool)
(declare-fun bt439 () Bool)
(declare-fun bt440 () Bool)
(declare-fun it16 () Int)
(declare-fun it17 () Int)
(declare-fun it18 () Int)
(declare-fun bt25 () Bool)
(declare-fun bt28 () Bool)
(declare-fun bt26 () Bool)
(declare-fun bt27 () Bool)
(declare-fun it386 () Int)
(declare-fun it387 () Int)
(declare-fun it388 () Int)
(declare-fun it389 () Int)
(declare-fun bt441 () Bool)
(declare-fun bt442 () Bool)
(declare-fun bt443 () Bool)
(declare-fun bt444 () Bool)
(declare-fun it155 () Int)
(declare-fun it395 () Int)
(declare-fun it396 () Int)
(declare-fun it397 () Int)
(declare-fun it398 () Int)
(declare-fun bt449 () Bool)
(declare-fun bt450 () Bool)
(declare-fun bt451 () Bool)
(declare-fun bt452 () Bool)
(declare-fun bt448 () Bool)
(declare-fun it391 () Int)
(declare-fun it390 () Int)
(declare-fun it392 () Int)
(declare-fun bt446 () Bool)
(declare-fun bt445 () Bool)
(declare-fun bt447 () Bool)
(declare-fun it401 () Int)
(declare-fun it402 () Int)
(declare-fun it403 () Int)
(declare-fun it404 () Int)
(declare-fun bt453 () Bool)
(declare-fun bt454 () Bool)
(declare-fun bt455 () Bool)
(declare-fun bt456 () Bool)
(declare-fun bt460 () Bool)
(declare-fun it407 () Int)
(declare-fun bt458 () Bool)
(declare-fun bt457 () Bool)
(declare-fun it406 () Int)
(declare-fun it405 () Int)
(declare-fun bt459 () Bool)
(declare-fun it409 () Int)
(declare-fun it410 () Int)
(declare-fun it411 () Int)
(declare-fun it412 () Int)
(declare-fun bt461 () Bool)
(declare-fun bt462 () Bool)
(declare-fun bt463 () Bool)
(declare-fun bt464 () Bool)
(declare-fun it415 () Int)
(declare-fun bt465 () Bool)
(declare-fun bt466 () Bool)
(declare-fun it413 () Int)
(declare-fun it414 () Int)
(declare-fun bt468 () Bool)
(declare-fun bt467 () Bool)
(assert (= (+ i1 (- 1)) 0))
(assert (= (+ it379 (- 2)) 0))
(assert (= (+ (* it15 (- 1)) it380) 0))
(assert (= (+ it381 (* it14 (- 1))) 0))
(assert (= (+ (* it13 (- 1)) it382) 0))
(assert (or (and false bt437) (not bt437)))
(assert (or bt438 (and false (not bt438))))
(assert (or (not bt439) (and false bt439)))
(assert (or (not bt440) (and false bt440)))
(assert (and bt27
     (not bt26)
     (not bt28)
     (not bt25)
     (= (+ it18 (- 1)) 0)
     (= (+ it379 (- 2)) 0)
     (not bt439)
     (= (+ it381 (* it17 (- 1))) 0)
     (not bt437)
     (= (+ (* it16 (- 1)) it382) 0)
     bt438
     (not bt440)))
(assert (= (+ it386 (- 2)) 0))
(assert (= (+ it387 (* it18 (- 1))) 0))
(assert (= (+ (* it17 (- 1)) it388) 0))
(assert (= (+ (* it16 (- 1)) it389) 0))
(assert (or (and bt27 bt441) (and (not bt27) (not bt441))))
(assert (or (and bt28 bt442) (and (not bt28) (not bt442))))
(assert (or (and bt26 bt443) (and (not bt26) (not bt443))))
(assert (or (and bt25 bt444) (and (not bt25) (not bt444))))
(assert (let ((a!1 (+ (* (+ 0 it387) (exp 2 (+ it155 (- 1))) (+ 0 (- 1)))
              (+ 0 it389))))
  (and (not bt442)
       (not bt443)
       bt441
       (not bt444)
       (> it388 0)
       (> a!1 (+ 0 0))
       (> (+ (* it387 (- 1)) it389) 0)
       (>= (+ it386 (- 2)) 0)
       (>= (+ (* it386 (- 1)) 2) 0)
       (>= (+ it155 (- 1)) 0))))
(assert (= (+ it395 (* it386 (- 1))) 0))
(assert (= (+ (+ 0 it396) (* (+ 0 it387) (exp 2 it155) (+ 0 (- 1))))
   (+ 0 0)))
(assert (= (+ it397 (* it388 (- 1))) 0))
(assert (= (+ it398 (* it389 (- 1))) 0))
(assert (or bt449 (and false (not bt449))))
(assert (or (and false bt450) (not bt450)))
(assert (or (and false bt451) (not bt451)))
(assert (or (and false bt452) (not bt452)))
(assert (and (not bt447)
     bt445
     (not bt452)
     bt446
     (= (+ it395 (- 2)) 0)
     (> (+ (* it396 (- 1)) it398) 0)
     (= (+ it398 (* it392 (- 1))) 0)
     (not bt450)
     (= (+ it396 (* it390 (- 1))) 0)
     (= (+ it397 (* it391 (- 1))) 0)
     bt449
     (not bt448)
     (not bt451)))
(assert (= (+ it401 (- 2)) 0))
(assert (= (+ it402 (* it390 (- 1))) 0))
(assert (= (+ it403 (* it391 (- 1))) 0))
(assert (= (+ it404 (* it392 (- 1))) 0))
(assert (or (and bt453 bt446) (and (not bt446) (not bt453))))
(assert (or (and bt445 bt454) (and (not bt454) (not bt445))))
(assert (or (and bt447 bt455) (and (not bt447) (not bt455))))
(assert (or (and (not bt456) (not bt448)) (and bt448 bt456)))
(assert (and bt453
     bt454
     bt459
     (= (+ it401 (- 2)) 0)
     (= (+ it402 (* it405 (- 1))) 0)
     (not bt456)
     (not bt455)
     (= (+ (* it406 (- 1)) it403) 0)
     (not bt457)
     (not bt458)
     (> it403 0)
     (= (+ (* it407 (- 1)) it404) 0)
     (not bt460)))
(assert (= (+ it409 (- 2)) 0))
(assert (= (+ it410 (* it405 (- 1))) 0))
(assert (= (+ (* it406 (- 1)) it411) 0))
(assert (= (+ it412 (* it407 (- 1))) 0))
(assert (or (and (not bt461) (not bt458)) (and bt458 bt461)))
(assert (or (and (not bt462) (not bt457)) (and bt457 bt462)))
(assert (or (and (not bt463) (not bt459)) (and bt459 bt463)))
(assert (or (and (not bt464) (not bt460)) (and bt460 bt464)))
(assert (or (not bt467)
    bt468
    (distinct (+ it409 (- 2)) 0)
    bt462
    (distinct (+ it411 (* it414 (- 1))) 0)
    (distinct (+ (* it410 2) (* it413 (- 1))) 0)
    (not bt463)
    bt466
    (not bt465)
    (distinct (+ it412 (* it415 (- 1))) 0)
    bt461))
(assert (let ((a!1 (and (= (+ it411 (* it414 (- 1))) 0) (not bt467) bt466 (not bt465)))
      (a!3 (and bt468 (= (+ it411 (* it414 (- 1))) 0)))
      (a!6 (and (= (+ it411 (* it414 (- 1))) 0) bt465))
      (a!10 (and (= (+ it411 (* it414 (- 1))) 0) (not bt466)))
      (a!15 (and (= (+ it411 (* it414 (- 1))) 0)
                 (= (+ (* it410 2) (* it413 (- 1))) 0)
                 bt465
                 (not bt466)
                 bt467
                 (not bt468)
                 (= (+ it412 (* it415 (- 1))) 0)))
      (a!18 (and (= (+ it411 (* it414 (- 1))) 0)
                 bt466
                 bt467
                 (not bt465)
                 (= (+ it410 (* it413 (- 1))) 0)
                 (not bt468)
                 (= (+ it412 (* it415 (- 1))) 0))))
(let ((a!2 (and a!1
                (= (+ it413 (- 1)) 0)
                (not bt468)
                (= (+ it412 (* it415 (- 1))) 0)))
      (a!4 (and (and a!3 bt465)
                (not bt466)
                (not bt467)
                (= (+ it410 (* it413 (- 1))) 0)
                (= (+ it412 (* it415 (- 1))) 0)))
      (a!5 (and a!1
                (= (+ it410 (* it413 (- 1))) 0)
                (not bt468)
                (= (+ it412 (* it415 (- 1))) 0)))
      (a!7 (and a!6
                (not bt466)
                bt467
                (= (+ it410 (* it413 (- 1))) 0)
                (not bt468)
                (= (+ it412 (* it415 (- 1))) 0)))
      (a!8 (and a!6
                (not bt467)
                bt466
                (= (+ it410 (* it413 (- 1))) 0)
                (not bt468)
                (= (+ it412 (* it415 (- 1))) 0)))
      (a!11 (and a!10
                 bt467
                 (not bt465)
                 (= (+ it410 (* it413 (- 1))) 0)
                 (not bt468)
                 (= (+ it412 (* it415 (- 1))) 0)))
      (a!12 (and a!6
                 bt466
                 bt467
                 (not bt468)
                 (= (+ it412 (* it415 (- 1))) 0)
                 (= (+ (* it410 3) (* it413 (- 1))) 0)))
      (a!13 (and a!3
                 (not bt466)
                 (not bt467)
                 (not bt465)
                 (= (+ it410 (* it413 (- 1))) 0)
                 (= (+ it412 (* it415 (- 1))) 0)))
      (a!16 (and a!10
                 (not bt467)
                 (not bt465)
                 (= (+ it410 (* it413 (- 1))) 0)
                 (not bt468)
                 (= (+ it412 (* it415 (- 1))) 0)))
      (a!17 (and a!3
                 (not bt467)
                 bt466
                 (not bt465)
                 (= (+ it410 (* it413 (- 1))) 0)
                 (= (+ it412 (* it415 (- 1))) 0)))
      (a!19 (and (and a!3 bt465)
                 (not bt467)
                 bt466
                 (= (+ it410 (* it413 (- 1))) 0)
                 (= (+ it412 (* it415 (- 1))) 0))))
(let ((a!9 (or bt462
               (<= (+ it412 (* it410 (- 1))) 0)
               bt463
               bt464
               a!8
               (not bt461)))
      (a!14 (or (> (+ it412 (* it410 (- 1))) 0)
                bt462
                bt463
                bt464
                a!13
                (not bt461)))
      (a!20 (or (or (or (not bt464) bt462) bt463) a!16 (not bt461)))
      (a!21 (or (or (or (not bt464) bt462) bt463) (> it410 0) a!19 bt461)))
  (and (or (not bt462) a!2 bt463 bt464 bt461)
       (or (or (not bt464) bt462) (<= it410 0) bt463 a!4 bt461)
       (or (not bt462) a!5 bt464 (not bt463) bt461)
       (or (not bt462) bt464 (not bt463) a!7 (not bt461))
       (= (+ it409 (- 2)) 0)
       a!9
       (or (not bt462) a!11 (<= it411 0) bt463 bt464 (not bt461))
       (or bt462 a!12 bt464 (not bt463) (not bt461))
       a!14
       (or a!15 bt462 bt464 (not bt463) bt461)
       (or bt462 bt463 bt464 a!16 bt461)
       (or (or (not bt462) (not bt464) bt463) a!17 bt461)
       (or (not bt462) bt463 bt464 a!18 (> it411 0) (not bt461))
       (or (or (not bt462) (not bt464) bt463) a!19 (not bt461))
       a!20
       a!21)))))
(check-sat)
